50 105
96 167 1
48 167 1
82 142 1
67 108 1
73 116 1
70 108 1
105 216 1
76 134 1
73 268 2
54 124 2
82 106 1
133 229 2
71 200 2
39 121 1
67 279 2
67 174 1
64 95 2
58 294 6
72 263 2
66 149 2
68 336 1
96 334 1
167 220 1
134 357 1
69 268 1
80 336 1
69 89 1
100 186 1
187 336 1
152 329 6
152 168 2
136 168 4
169 327 6
136 155 4
152 333 2
120 328 2
214 323 3
168 187 2
187 334 8
120 334 2
103 145 6
137 334 2
158 333 2
158 335 2
140 307 1
153 334 4
118 164 1
70 118 2
190 323 1
208 335 1
500 1000 
500 1000 
500 1000 
500 1000 
500 1000 
500 1000 
500 1000 
500 1000 
500 1000 
500 1000 
500 1000 
500 1000 
500 1000 
500 1000 
500 1000 
500 1000 
500 1000 
500 1000 
500 1000 
500 1000 
500 1000 
500 1000 
500 1000 
500 1000 
500 1000 
500 1000 
500 1000 
500 1000 
500 1000 
500 1000 
500 1000 
500 1000 
500 1000 
500 1000 
500 1000 
500 1000 
500 1000 
500 1000 
500 1000 
500 1000 
500 1000 
500 1000 
500 1000 
500 1000 
500 1000 
500 1000 
500 1000 
500 1000 
500 1000 
500 1000 
500 1000 
500 1000 
500 1000 
500 1000 
500 1000 
500 1000 
500 1000 
500 1000 
500 1000 
500 1000 
500 1000 
500 1000 
500 1000 
500 1000 
500 1000 
500 1000 
500 1000 
500 1000 
500 1000 
500 1000 
500 1000 
500 1000 
500 1000 
500 1000 
500 1000 
500 1000 
500 1000 
500 1000 
500 1000 
500 1000 
500 1000 
500 1000 
500 1000 
500 1000 
500 1000 
500 1000 
500 1000 
500 1000 
500 1000 
500 1000 
500 1000 
500 1000 
500 1000 
500 1000 
500 1000 
500 1000 
500 1000 
500 1000 
500 1000 
500 1000 
500 1000 
500 1000 
500 1000 
500 1000 
500 1000 
